66600297839291582005015,5,1,2,06,10,1,2,011,8,1,2,010,12,1,2,02,10,1,2,015,7,1,2,03,9,1,2,015,15,1,2,06,10,1,2,08,11,1,2,02,10,1,2,05,10,1,2,015,4,1,2,013,3,1,2,015,7,1,2,013,7,1,2,01,9,1,2,05,2,1,2,07,12,1,2,02,15,1,2,04,5,1,2,013,13,1,2,014,12,1,2,08,6,1,2,010,5,1,2,02,14,1,2,09,13,1,2,08,2,1,2,013,15,1,2,06,1,1,2,013,15,1,2,07,2,1,2,07,9,1,2,015,14,1,2,015,9,1,2,05,11,1,2,09,2,1,2,08,14,1,2,011,2,1,2,04,11,1,2,08,14,1,2,015,3,1,2,013,14,1,2,013,12,1,2,04,8,1,2,07,6,1,2,01,12,1,2,09,10,1,2,02,12,1,2,013,12,1,2,0